
<<< setup


<<< generate

 ! --------------------------------------------------- CP Optimizer 22.1.1.0 --
 ! Satisfiability problem - 100 variables, 896 constraints
 ! Presolve      : 261 extractables eliminated, 87 constraints generated
 ! ParallelMode         = 1
 ! Workers              = 8
 ! Initial process time : 0.04s (0.04s extraction + 0.00s propagation)
 !  . Log search space  : 200.0 (before), 200.0 (after)
 !  . Memory usage      : 1.1 MB (before), 1.1 MB (after)
 ! Using parallel search with 8 workers.
 ! ----------------------------------------------------------------------------
 !               Branches  Non-fixed    W       Branch decision
                     1000         24    3   F     0  = x#0#21
                     1000         37    6   F     1  = x#0#24
                     1000         40    5   F     2  = x#0#63
                     1000         28    2   F     2  = x#0#71
                     1000         25    7         1 != x#0#59
                     1000         21    4   F     2 != x#0#47
 *                   1182  0.07s        3         0  = x#0#99
 ! ----------------------------------------------------------------------------
 ! Search completed, 1 solution found.
 ! ----------------------------------------------------------------------------
 ! Number of branches     : 13595
 ! Number of fails        : 6070
 ! Total memory usage     : 19.4 MB (19.0 MB CP Optimizer + 0.4 MB Concert)
 ! Time spent in solve    : 0.09s (0.06s engine + 0.04s extraction)
 ! Search speed (br. / s) : 271900.0
 ! ----------------------------------------------------------------------------

<<< solve



OBJECTIVE: no objective
===== Nurse Rostering Schedule =====
Shifts: D=Day, E=Evening, N=Night, O=Off

Nurse 1: D D D D E E O D E E O N O O D D E D E D O D E E O N O O D D E D E D O D E E O N O O D D E D E D O D E E O N O O D D E D E D O D E E O N O O D D E D E D O D E E O N O O D D E D E D O D E E O N O O D D 

<<< post process


<<< done

